ws_caric/src/star_planner/utils/lkh_tsp_solver/resource/nanyang_cluster.tsp
NAME : single_frontier
TYPE : ATSP
DIMENSION : 8
EDGE_WEIGHT_TYPE : EXPLICIT
EDGE_WEIGHT_FORMAT : FULL_MATRIX
EDGE_WEIGHT_SECTION
0 1747 357 569 1458 1270 2884 3189 
0 0 5624 3883 1460 3713 12521 13951 
0 5624 0 1345 3844 3264 11201 12595 
0 3883 1345 0 2705 2973 11090 12535 
0 1460 3844 2705 0 2258 13239 14775 
0 3713 3264 2973 2258 0 11609 13081 
0 12521 11201 11090 13239 11609 0 1000000 
0 13951 12595 12535 14775 13081 1000000 0 
EOF