ws_caric/src/star_planner/utils/lkh_tsp_solver/resource/nanyang_cluster.txt
NAME : single_frontier.36034.tour
COMMENT : Length = 36034
COMMENT : Found by LKH [Keld Helsgaun] Tue Nov 21 16:29:00 2023
TYPE : TOUR
DIMENSION : 8
TOUR_SECTION
1
7
6
5
2
4
3
8
-1
EOF
